2,2,2,2,2,2,2,2,2,2,2,2,2,2,2,2,2,2,2,2,2,2,2,2,2,2,2,2,2,2,2,2,1,1,1,1,0,0,0,0,0,0,0,0,0,0,0,0,0,0,0,0,0,0,0,0,0,0,0,0,0,0,0,0,0,0,0,0,0,0,0,0,0,1,1,1,1,1,1,1,1,1,1,1,1,1,1,1,1,1,1,1,1,1,1,2,2,2,2,2,2,2,2,2,2,2,2,2,2,2,2,2,2,2,2,2,2,2,2,2,2,2,2,2,2,2,2,2,1,1,1,1,0,0,0,0,0,0,0,0,0,0,0,0,0,0,0,0,0,0,0,0,0,0,0,0,0,0,0,0,0,0,0,0,0,0,0,1,1,1,1,1,1,1,1,1,1,1,1,1,1,1,1,1,1,1,1,1,1,1,1,1,2,2,2,2,2,2,2,2,2,2,2,2,2,2,2,2,2,2,2,2,2,2,2,2,2,2,2,2,1,1,0,0,0,0,0,0,0,0,0,0,0,0,0,0,0,0,0,0,0,0,0,0,0,0,0,0,0,0,0,0,0,0,0,0,0,0,0,0,0,0,0,0,0,0,0,1,1,1,1,1,1,1,1,1,1,1,1,1,1,1,1,1,1,1,2,2,2,2,2,2,2,2,2,2,2,2,2,2,2,2,2,2,2,2,2,2,2,2,2,2,2,2,2,2,2,2,2,2,1,1,1,1,0,0,0,0,0,0,0,0,0,0,0,0,0,0,0,0,0,0,0,0,0,0,0,0,0,0,0,0,0,0,0,0,0,0,1,1,1,1,1,0,0,0,0,0,0,1,1,1,1,1,1,1,1,1,1,1,1,1,1,2,2,2,2,2,2,2,2,2,2,2,2,2,2,2,2,2,2,2,2,2,2,2,2,2,2,2,2,2,2,2,2,2,1,1,1,0,0,0,0,0,0,0,0,0,0,0,0,0,0,0,0,0,0,0,0,0,0,0,0,0,0,0,0,0,0,0,0,0,0,0,0,0,1,1,1,1,1,1,1,1,1,1,1,1,1,1,0,0,0,0,0,0,0,0,0,0,0,0,0,0,0,0,0,1,1,1,2,2,2,2,2,2,2,2,2,2,2,2,2,2,2,2,2,2,2,2,2,2,2,2,2,2,2,2,2,2,2,2,2,1,1,1,1,1,1,1,1,1,1,1,1,1,1,1,1,0,0,0,0,0,0,0,0,0,0,0,0,1,1,1,1,1,1,1,1,0,0,0,0,0,0,0,0,0,1,1,1,1,1,1,1,1,2,2,2,2,2,2,2,2,2,2,2,2,2,2,2,2,2,2,2,2,2,2,2,2,2,2,2,2,2,2,2,2,2,2,2,2,2,1,1,1,1,1,0,0,0,0,0,0,0,0,0,0,0,0,0,0,0,0,0,0,0,0,0,0,0,0,0,1,1,1,1,1,1,1,1,1,2,1,1,1,1,1,1,1,1,1,1,1,1,1,1,2,2,2,2,2,2,2,2,2,2,2,2,2,2,2,2,2,2,2,2,2,2,2,2,2,2,2,2,2,2,2,2,2,2,2,2,2,1,1,1,0,0,0,0,0,0,0,0,0,0,0,0,0,0,0,0,0,0,0,0,0,0,0,0,0,0,0,0,0,0,0,0,0,0,0,0,0,0,0,0,0,1,1,1,1,1,1,1,1,1,1,1,1,1,1,1,1,1,1,1,2,2,2,2,2,2,2,2,2,2,2,2,2,2,2,2,2,2,2,2,2,2,2,2,2,2,2,2,2,2,2,2,1,1,1,1,0,0,0,0,0,0,0,0,0,0,0,0,0,0,0,0,0,0,0,0,0,0,0,0,0,0,0,0,0,0,0,0,0,0,0,0,0,1,1,1,1,1,1,1,1,1,1,1,1,1,1,1,1,1,1,1,1,2,2,2,2,2,2,2,2,2,2,2,2,2,2,2,2,2,2,2,2,2,2,2,2,2,2,2,2,2,2,2,1,1,0,0,0,0,0,0,0,0,0,0,0,0,0,0,0,0,0,0,0,0,0,0,0,0,0,0,0,0,0,0,0,0,0,0,0,0,0,0,0,0,0,0,0,0,0,0,1,1,1,1,1,1,1,1,1,1,1,1,1,1,1,1,1,1,1,1,1,2,2,2,2,2,2,2,2,2,2,2,2,2,2,2,2,2,2,2,2,2,2,2,2,2,2,2,2,2,2,2,2,1,1,1,0,0,0,0,0,0,0,0,0,0,0,0,0,0,0,0,0,0,0,0,0,0,0,0,0,0,0,0,0,0,0,0,0,0,0,0,0,0,1,1,1,1,1,1,1,0,0,0,0,1,1,1,1,1,1,1,1,1,1,2,2,2,2,2,2,2,2,2,2,2,2,2,2,2,2,2,2,2,2,2,2,2,2,2,2,2,2,2,2,2,2,2,1,1,1,1,0,0,0,0,0,0,0,0,0,0,0,0,0,0,0,0,0,0,0,0,0,0,0,0,0,0,0,0,0,0,0,0,0,0,0,0,0,0,0,0,0,1,1,1,1,1,1,1,1,1,1,1,1,1,1,1,1,1,1,1,2,2,2,2,2,2,2,2,2,2,2,2,2,2,2,2,2,2,2,2,2,2,2,2,2,2,2,2,2,2,2,2,2,2,2,2,2,2,2,2,1,1,1,1,1,1,1,1,1,1,1,1,1,1,0,0,0,0,0,0,0,0,0,0,0,0,0,0,0,1,1,1,1,1,0,0,0,0,0,0,0,0,0,0,0,1,1,1,1,1,1,1,1,1,1,2,2,2,2,2,2,2,2,2,2,2,2,2,2,2,2,2,2,2,2,2,2,2,2,2,2,2,2,2,2,2,2,2,2,1,1,1,0,0,0,0,0,0,0,0,1,1,1,1,1,1,1,1,1,1,1,1,1,1,1,0,0,0,0,0,0,0,0,1,1,1,1,1,1,1,1,1,1,1,1,1,1,1,1,1,1,1,1,1,1,1,1,1,2,2,2,2,2,2,2,2,2,2,2,2,2,2,2,2,2,2,2,2,2,2,2,2,2,2,2,2,2,2,2,2,2,2,2,2,1,1,1,1,1,0,0,0,0,0,0,0,0,0,0,0,0,0,0,0,0,0,0,0,0,0,0,0,0,0,0,0,0,0,0,0,0,0,0,0,0,0,1,1,0,0,1,1,1,1,1,1,1,1,1,1,1,1,1,1,1,2,2,2,2,2,2,2,2,2,2,2,2,2,2,2,2,2,2,2,2,2,2,2,2,2,2,2,2,2,2,2,2,2,2,1,1,1,1,0,0,0,0,0,0,0,0,0,0,0,0,0,0,0,1,1,1,1,0,0,0,0,0,0,0,0,0,0,0,0,0,0,0,0,0,0,0,0,0,0,0,0,0,0,0,1,1,1,1,1,1,1,1,1,1,1,1,1,1,1,2,2,2,2,2,2,2,2,2,2,2,2,2,2,2,2,2,2,2,2,2,2,2,2,2,2,2,1,1,0,0,0,0,0,0,0,0,0,0,0,0,0,0,0,0,0,0,0,0,0,0,0,0,0,0,0,0,0,0,0,0,0,0,0,0,0,0,0,0,0,1,1,1,1,1,1,1,1,1,1,1,1,1,1,1,1,1,1,1,1,1,1,1,1,1,1,1,1,1,1,2,2,2,2,2,2,2,2,2,2,2,2,2,2,2,2,2,2,2,2,2,2,2,2,2,2,2,2,2,1,1,1,1,0,0,0,0,0,0,0,0,0,0,0,0,0,0,0,0,0,0,0,0,0,0,0,0,0,0,0,0,0,0,0,0,0,0,0,0,0,1,1,0,0,0,0,0,0,0,0,1,1,1,1,1,1,1,1,1,1,1,1,1,1,1,2,2,2,2,2,2,2,2,2,2,2,2,2,2,2,2,2,2,2,2,2,2,2,2,2,2,2,2,2,2,2,2,2,1,1,0,0,0,0,0,0,0,0,0,0,0,0,0,0,0,0,0,0,0,0,0,0,0,0,0,0,0,0,0,0,0,0,0,0,0,0,0,0,0,1,1,1,1,1,1,1,1,0,0,0,0,0,0,0,0,1,1,1,1,2,2,2,2,2,2,2,2,2,2,2,2,2,2,2,2,2,2,2,2,2,2,2,2,2,2,2,2,2,2,2,2,2,2,2,2,2,1,1,1,1,1,1,1,1,1,1,1,1,1,1,1,1,1,1,1,1,1,0,0,0,0,0,0,0,0,0,0,0,0,1,1,1,1,1,0,0,0,0,0,0,0,0,0,0,0,0,0,0,0,0,0,0,1,1,1,1,1,1,2,2,2,2,2,2,2,2,2,2,2,2,2,2,2,2,2,2,2,2,2,2,2,2,2,2,2,2,2,2,2,2,2,2,2,2,2,2,2,2,1,1,1,1,1,1,1,1,1,1,1,1,1,0,0,0,0,0,0,0,0,0,0,0,0,0,1,1,1,1,1,1,1,0,0,0,0,0,0,0,0,0,0,0,0,1,1,1,1,1,1,1,1,2,2,2,2,2,2,2,2,2,2,2,2,2,2,2,2,2,2,2,2,2,2,2,2,2,2,2,2,2,2,2,2,1,1,1,0,0,0,0,0,0,0,0,0,0,0,0,0,0,0,0,0,0,0,0,0,0,0,0,0,0,0,0,0,0,0,0,0,0,0,0,0,0,0,0,0,1,1,1,1,1,1,1,1,1,1,1,1,1,1,1,1,1,1,2,2,2,2,2,2,2,2,2,2,2,2,2,2,2,2,2,2,2,2,2,2,2,2,2,2,2,2,2,2,2,2,2,2,2,2,1,1,1,0,0,0,0,0,0,0,0,0,0,0,0,0,0,0,0,0,0,0,0,0,0,0,0,0,0,0,0,0,0,0,0,0,0,0,0,0,1,1,1,1,1,1,1,1,1,1,1,1,1,1,1,1,1,1,1,2,2,2,2,2,2,2,2,2,2,2,2,2,2,2,2,2,2,2,2,2,2,2,2,2,2,2,2,2,2,1,0,0,0,0,0,0,0,0,0,0,0,0,0,0,0,0,0,0,0,0,0,0,0,0,0,0,0,0,0,0,0,0,0,0,0,0,0,0,0,0,0,0,1,1,1,1,1,1,1,1,1,0,0,0,0,1,1,1,1,1,1,1,1,1,1,1,1,1,2,2,2,2,2,2,2,2,2,2,2,2,2,2,2,2,2,2,2,2,2,2,2,2,2,2,2,2,2,2,2,2,2,2,2,1,1,0,0,0,0,0,0,0,0,0,0,0,0,0,0,0,0,0,0,0,0,0,0,0,0,0,0,0,0,0,0,0,0,0,0,0,0,0,0,1,1,1,1,1,1,1,1,1,1,1,1,1,1,1,1,1,1,1,1,1,2,2,2,2,2,2,2,2,2,2,2,2,2,2,2,2,2,2,2,2,2,2,2,2,2,2,2,2,2,2,2,2,2,1,1,0,0,0,0,0,0,0,0,0,0,0,0,0,0,0,0,0,0,0,0,0,0,0,0,0,0,0,0,0,0,0,0,0,0,0,0,0,0,0,0,0,0,0,0,0,0,0,0,1,1,1,1,1,1,0,0,0,0,0,0,0,0,0,0,0,0,0,0,0,0,0,0,0,1,1,1,2,2,2,2,2,2,2,2,2,2,2,2,2,2,2,2,2,2,2,2,2,2,2,2,2,2,2,2,2,2,2,2,1,1,1,1,1,1,1,1,1,1,1,1,1,1,0,0,0,0,0,0,0,0,0,0,0,0,0,0,0,0,0,1,1,1,1,1,1,1,1,1,1,1,1,1,1,1,1,1,1,1,1,1,1,2,2,2,2,2,2,2,2,2,2,2,2,2,2,2,2,2,2,2,2,2,2,2,2,2,2,2,2,2,1,1,0,0,0,0,0,1,1,1,1,1,1,1,1,1,1,1,1,1,1,1,1,1,1,1,1,1,0,0,0,0,0,0,0,0,0,0,0,0,0,0,0,0,0,0,1,1,1,1,1,1,1,1,1,1,1,1,1,1,1,2,2
7.3537e+05,7.3537e+05,7.3537e+05,7.3537e+05,7.3537e+05,7.3537e+05,7.3537e+05,7.3537e+05,7.3537e+05,7.3537e+05,7.3537e+05,7.3537e+05,7.3537e+05,7.3537e+05,7.3537e+05,7.3537e+05,7.3537e+05,7.3537e+05,7.3537e+05,7.3537e+05,7.3537e+05,7.3537e+05,7.3537e+05,7.3537e+05,7.3537e+05,7.3537e+05,7.3537e+05,7.3537e+05,7.3537e+05,7.3537e+05,7.3537e+05,7.3537e+05,7.3537e+05,7.3537e+05,7.3537e+05,7.3537e+05,7.3537e+05,7.3537e+05,7.3537e+05,7.3537e+05,7.3537e+05,7.3537e+05,7.3537e+05,7.3537e+05,7.3537e+05,7.3537e+05,7.3537e+05,7.3537e+05,7.3537e+05,7.3537e+05,7.3537e+05,7.3537e+05,7.3537e+05,7.3537e+05,7.3537e+05,7.3537e+05,7.3537e+05,7.3537e+05,7.3537e+05,7.3537e+05,7.3537e+05,7.3537e+05,7.3537e+05,7.3537e+05,7.3537e+05,7.3537e+05,7.3537e+05,7.3537e+05,7.3537e+05,7.3537e+05,7.3537e+05,7.3537e+05,7.3537e+05,7.3537e+05,7.3537e+05,7.3537e+05,7.3537e+05,7.3537e+05,7.3537e+05,7.3537e+05,7.3537e+05,7.3537e+05,7.3537e+05,7.3537e+05,7.3537e+05,7.3537e+05,7.3537e+05,7.3537e+05,7.3537e+05,7.3537e+05,7.3537e+05,7.3537e+05,7.3537e+05,7.3537e+05,7.3537e+05,7.3537e+05,7.3538e+05,7.3538e+05,7.3538e+05,7.3538e+05,7.3538e+05,7.3538e+05,7.3538e+05,7.3538e+05,7.3538e+05,7.3538e+05,7.3538e+05,7.3538e+05,7.3538e+05,7.3538e+05,7.3538e+05,7.3538e+05,7.3538e+05,7.3538e+05,7.3538e+05,7.3538e+05,7.3538e+05,7.3538e+05,7.3538e+05,7.3538e+05,7.3538e+05,7.3538e+05,7.3538e+05,7.3538e+05,7.3538e+05,7.3538e+05,7.3538e+05,7.3538e+05,7.3538e+05,7.3538e+05,7.3538e+05,7.3538e+05,7.3538e+05,7.3538e+05,7.3538e+05,7.3538e+05,7.3538e+05,7.3538e+05,7.3538e+05,7.3538e+05,7.3538e+05,7.3538e+05,7.3538e+05,7.3538e+05,7.3538e+05,7.3538e+05,7.3538e+05,7.3538e+05,7.3538e+05,7.3538e+05,7.3538e+05,7.3538e+05,7.3538e+05,7.3538e+05,7.3538e+05,7.3538e+05,7.3538e+05,7.3538e+05,7.3538e+05,7.3538e+05,7.3538e+05,7.3538e+05,7.3538e+05,7.3538e+05,7.3538e+05,7.3538e+05,7.3538e+05,7.3538e+05,7.3538e+05,7.3538e+05,7.3538e+05,7.3538e+05,7.3538e+05,7.3538e+05,7.3538e+05,7.3538e+05,7.3538e+05,7.3538e+05,7.3538e+05,7.3538e+05,7.3538e+05,7.3538e+05,7.3538e+05,7.3538e+05,7.3538e+05,7.3538e+05,7.3538e+05,7.3538e+05,7.3538e+05,7.3538e+05,7.3538e+05,7.3538e+05,7.3538e+05,7.3538e+05,7.3538e+05,7.3538e+05,7.3538e+05,7.3538e+05,7.3538e+05,7.3538e+05,7.3538e+05,7.3538e+05,7.3538e+05,7.3538e+05,7.3538e+05,7.3538e+05,7.3538e+05,7.3538e+05,7.3538e+05,7.3538e+05,7.3538e+05,7.3538e+05,7.3538e+05,7.3538e+05,7.3538e+05,7.3538e+05,7.3538e+05,7.3538e+05,7.3538e+05,7.3538e+05,7.3538e+05,7.3538e+05,7.3538e+05,7.3538e+05,7.3538e+05,7.3538e+05,7.3538e+05,7.3538e+05,7.3538e+05,7.3538e+05,7.3538e+05,7.3538e+05,7.3538e+05,7.3538e+05,7.3538e+05,7.3538e+05,7.3538e+05,7.3538e+05,7.3538e+05,7.3538e+05,7.3538e+05,7.3538e+05,7.3538e+05,7.3538e+05,7.3538e+05,7.3538e+05,7.3538e+05,7.3538e+05,7.3538e+05,7.3538e+05,7.3538e+05,7.3538e+05,7.3538e+05,7.3538e+05,7.3538e+05,7.3538e+05,7.3538e+05,7.3538e+05,7.3538e+05,7.3538e+05,7.3538e+05,7.3538e+05,7.3538e+05,7.3538e+05,7.3538e+05,7.3538e+05,7.3538e+05,7.3538e+05,7.3538e+05,7.3538e+05,7.3538e+05,7.3538e+05,7.3538e+05,7.3538e+05,7.3538e+05,7.3538e+05,7.3538e+05,7.3538e+05,7.3538e+05,7.3538e+05,7.3538e+05,7.3538e+05,7.3538e+05,7.3538e+05,7.3538e+05,7.3538e+05,7.3538e+05,7.3538e+05,7.3538e+05,7.3538e+05,7.3538e+05,7.3538e+05,7.3538e+05,7.3538e+05,7.3538e+05,7.3538e+05,7.3538e+05,7.3538e+05,7.3538e+05,7.3538e+05,7.3538e+05,7.3538e+05,7.3538e+05,7.3538e+05,7.3538e+05,7.3538e+05,7.3538e+05,7.3538e+05,7.3538e+05,7.3538e+05,7.3538e+05,7.3538e+05,7.3538e+05,7.3538e+05,7.3538e+05,7.3538e+05,7.3538e+05,7.3538e+05,7.3538e+05,7.3538e+05,7.3538e+05,7.3538e+05,7.3538e+05,7.3538e+05,7.3538e+05,7.3538e+05,7.3538e+05,7.3538e+05,7.3538e+05,7.3538e+05,7.3538e+05,7.3538e+05,7.3538e+05,7.3538e+05,7.3538e+05,7.3538e+05,7.3538e+05,7.3538e+05,7.3538e+05,7.3538e+05,7.3538e+05,7.3538e+05,7.3538e+05,7.3538e+05,7.3538e+05,7.3538e+05,7.3538e+05,7.3538e+05,7.3538e+05,7.3538e+05,7.3538e+05,7.3538e+05,7.3538e+05,7.3538e+05,7.3538e+05,7.3538e+05,7.3538e+05,7.3538e+05,7.3538e+05,7.3538e+05,7.3538e+05,7.3538e+05,7.3538e+05,7.3538e+05,7.3538e+05,7.3538e+05,7.3538e+05,7.3538e+05,7.3538e+05,7.3538e+05,7.3538e+05,7.3538e+05,7.3538e+05,7.3538e+05,7.3538e+05,7.3538e+05,7.3538e+05,7.3538e+05,7.3538e+05,7.3538e+05,7.3538e+05,7.3538e+05,7.3538e+05,7.3538e+05,7.3538e+05,7.3538e+05,7.3538e+05,7.3538e+05,7.3538e+05,7.3538e+05,7.3538e+05,7.3538e+05,7.3538e+05,7.3538e+05,7.3538e+05,7.3538e+05,7.3538e+05,7.3538e+05,7.3538e+05,7.3538e+05,7.3538e+05,7.3538e+05,7.3538e+05,7.3538e+05,7.3538e+05,7.3538e+05,7.3538e+05,7.3538e+05,7.3538e+05,7.3538e+05,7.3538e+05,7.3538e+05,7.3538e+05,7.3538e+05,7.3538e+05,7.3538e+05,7.3538e+05,7.3538e+05,7.3538e+05,7.3538e+05,7.3538e+05,7.3538e+05,7.3538e+05,7.3538e+05,7.3538e+05,7.3538e+05,7.3538e+05,7.3538e+05,7.3538e+05,7.3538e+05,7.3538e+05,7.3538e+05,7.3538e+05,7.3538e+05,7.3538e+05,7.3538e+05,7.3538e+05,7.3538e+05,7.3538e+05,7.3538e+05,7.3538e+05,7.3538e+05,7.3538e+05,7.3538e+05,7.3538e+05,7.3538e+05,7.3538e+05,7.3538e+05,7.3538e+05,7.3538e+05,7.3538e+05,7.3538e+05,7.3538e+05,7.3538e+05,7.3538e+05,7.3538e+05,7.3538e+05,7.3538e+05,7.3538e+05,7.3538e+05,7.3538e+05,7.3538e+05,7.3538e+05,7.3538e+05,7.3538e+05,7.3538e+05,7.3538e+05,7.3538e+05,7.3538e+05,7.3538e+05,7.3538e+05,7.3538e+05,7.3538e+05,7.3538e+05,7.3538e+05,7.3538e+05,7.3538e+05,7.3538e+05,7.3538e+05,7.3538e+05,7.3538e+05,7.3538e+05,7.3538e+05,7.3538e+05,7.3538e+05,7.3538e+05,7.3538e+05,7.3538e+05,7.3538e+05,7.3538e+05,7.3538e+05,7.3538e+05,7.3538e+05,7.3538e+05,7.3538e+05,7.3538e+05,7.3538e+05,7.3538e+05,7.3538e+05,7.3538e+05,7.3538e+05,7.3538e+05,7.3538e+05,7.3538e+05,7.3538e+05,7.3538e+05,7.3538e+05,7.3538e+05,7.3538e+05,7.3538e+05,7.3538e+05,7.3538e+05,7.3538e+05,7.3538e+05,7.3538e+05,7.3538e+05,7.3538e+05,7.3538e+05,7.3538e+05,7.3538e+05,7.3538e+05,7.3538e+05,7.3538e+05,7.3538e+05,7.3538e+05,7.3538e+05,7.3538e+05,7.3538e+05,7.3538e+05,7.3538e+05,7.3538e+05,7.3538e+05,7.3538e+05,7.3538e+05,7.3538e+05,7.3538e+05,7.3538e+05,7.3538e+05,7.3538e+05,7.3538e+05,7.3538e+05,7.3538e+05,7.3538e+05,7.3538e+05,7.3538e+05,7.3538e+05,7.3538e+05,7.3538e+05,7.3538e+05,7.3538e+05,7.3538e+05,7.3538e+05,7.3538e+05,7.3538e+05,7.3538e+05,7.3538e+05,7.3538e+05,7.3538e+05,7.3538e+05,7.3538e+05,7.3538e+05,7.3538e+05,7.3538e+05,7.3538e+05,7.3538e+05,7.3538e+05,7.3538e+05,7.3538e+05,7.3538e+05,7.3538e+05,7.3538e+05,7.3538e+05,7.3538e+05,7.3538e+05,7.3538e+05,7.3538e+05,7.3538e+05,7.3538e+05,7.3538e+05,7.3538e+05,7.3538e+05,7.3538e+05,7.3538e+05,7.3538e+05,7.3538e+05,7.3538e+05,7.3538e+05,7.3538e+05,7.3538e+05,7.3538e+05,7.3538e+05,7.3538e+05,7.3538e+05,7.3538e+05,7.3538e+05,7.3538e+05,7.3538e+05,7.3538e+05,7.3538e+05,7.3538e+05,7.3538e+05,7.3538e+05,7.3538e+05,7.3538e+05,7.3538e+05,7.3538e+05,7.3538e+05,7.3538e+05,7.3538e+05,7.3538e+05,7.3538e+05,7.3538e+05,7.3538e+05,7.3538e+05,7.3538e+05,7.3538e+05,7.3538e+05,7.3538e+05,7.3538e+05,7.3538e+05,7.3538e+05,7.3538e+05,7.3538e+05,7.3538e+05,7.3538e+05,7.3538e+05,7.3538e+05,7.3538e+05,7.3538e+05,7.3538e+05,7.3538e+05,7.3538e+05,7.3538e+05,7.3538e+05,7.3538e+05,7.3538e+05,7.3538e+05,7.3538e+05,7.3538e+05,7.3538e+05,7.3538e+05,7.3538e+05,7.3538e+05,7.3538e+05,7.3538e+05,7.3538e+05,7.3538e+05,7.3538e+05,7.3538e+05,7.3538e+05,7.3538e+05,7.3538e+05,7.3538e+05,7.3538e+05,7.3538e+05,7.3538e+05,7.3538e+05,7.3538e+05,7.3538e+05,7.3538e+05,7.3538e+05,7.3538e+05,7.3538e+05,7.3538e+05,7.3538e+05,7.3538e+05,7.3538e+05,7.3538e+05,7.3538e+05,7.3538e+05,7.3538e+05,7.3538e+05,7.3538e+05,7.3538e+05,7.3538e+05,7.3538e+05,7.3538e+05,7.3538e+05,7.3538e+05,7.3538e+05,7.3538e+05,7.3538e+05,7.3538e+05,7.3538e+05,7.3538e+05,7.3538e+05,7.3538e+05,7.3538e+05,7.3538e+05,7.3538e+05,7.3538e+05,7.3538e+05,7.3538e+05,7.3538e+05,7.3538e+05,7.3538e+05,7.3538e+05,7.3538e+05,7.3538e+05,7.3538e+05,7.3538e+05,7.3538e+05,7.3538e+05,7.3538e+05,7.3538e+05,7.3538e+05,7.3538e+05,7.3538e+05,7.3538e+05,7.3538e+05,7.3538e+05,7.3538e+05,7.3538e+05,7.3538e+05,7.3538e+05,7.3538e+05,7.3538e+05,7.3538e+05,7.3538e+05,7.3538e+05,7.3538e+05,7.3538e+05,7.3538e+05,7.3538e+05,7.3538e+05,7.3538e+05,7.3538e+05,7.3538e+05,7.3538e+05,7.3538e+05,7.3538e+05,7.3538e+05,7.3538e+05,7.3538e+05,7.3538e+05,7.3538e+05,7.3538e+05,7.3538e+05,7.3538e+05,7.3538e+05,7.3538e+05,7.3538e+05,7.3538e+05,7.3538e+05,7.3538e+05,7.3538e+05,7.3538e+05,7.3538e+05,7.3538e+05,7.3538e+05,7.3538e+05,7.3538e+05,7.3538e+05,7.3538e+05,7.3538e+05,7.3538e+05,7.3538e+05,7.3538e+05,7.3538e+05,7.3538e+05,7.3538e+05,7.3538e+05,7.3538e+05,7.3538e+05,7.3538e+05,7.3538e+05,7.3538e+05,7.3538e+05,7.3538e+05,7.3538e+05,7.3538e+05,7.3538e+05,7.3538e+05,7.3538e+05,7.3538e+05,7.3538e+05,7.3538e+05,7.3538e+05,7.3538e+05,7.3538e+05,7.3538e+05,7.3538e+05,7.3538e+05,7.3538e+05,7.3538e+05,7.3538e+05,7.3538e+05,7.3538e+05,7.3538e+05,7.3538e+05,7.3538e+05,7.3538e+05,7.3538e+05,7.3538e+05,7.3538e+05,7.3538e+05,7.3538e+05,7.3538e+05,7.3538e+05,7.3538e+05,7.3538e+05,7.3538e+05,7.3538e+05,7.3538e+05,7.3538e+05,7.3538e+05,7.3538e+05,7.3538e+05,7.3538e+05,7.3538e+05,7.3538e+05,7.3538e+05,7.3538e+05,7.3538e+05,7.3538e+05,7.3538e+05,7.3538e+05,7.3538e+05,7.3538e+05,7.3538e+05,7.3538e+05,7.3538e+05,7.3538e+05,7.3538e+05,7.3538e+05,7.3538e+05,7.3538e+05,7.3538e+05,7.3538e+05,7.3538e+05,7.3538e+05,7.3538e+05,7.3538e+05,7.3538e+05,7.3538e+05,7.3538e+05,7.3538e+05,7.3538e+05,7.3538e+05,7.3538e+05,7.3538e+05,7.3538e+05,7.3538e+05,7.3538e+05,7.3538e+05,7.3538e+05,7.3538e+05,7.3538e+05,7.3538e+05,7.3538e+05,7.3538e+05,7.3538e+05,7.3538e+05,7.3538e+05,7.3538e+05,7.3538e+05,7.3538e+05,7.3538e+05,7.3538e+05,7.3538e+05,7.3538e+05,7.3538e+05,7.3538e+05,7.3538e+05,7.3538e+05,7.3538e+05,7.3538e+05,7.3538e+05,7.3538e+05,7.3538e+05,7.3538e+05,7.3538e+05,7.3538e+05,7.3538e+05,7.3538e+05,7.3538e+05,7.3538e+05,7.3538e+05,7.3538e+05,7.3538e+05,7.3538e+05,7.3538e+05,7.3538e+05,7.3538e+05,7.3538e+05,7.3538e+05,7.3538e+05,7.3538e+05,7.3538e+05,7.3538e+05,7.3538e+05,7.3538e+05,7.3538e+05,7.3538e+05,7.3538e+05,7.3538e+05,7.3538e+05,7.3538e+05,7.3538e+05,7.3538e+05,7.3538e+05,7.3538e+05,7.3538e+05,7.3538e+05,7.3538e+05,7.3538e+05,7.3538e+05,7.3538e+05,7.3538e+05,7.3538e+05,7.3538e+05,7.3538e+05,7.3538e+05,7.3538e+05,7.3538e+05,7.3538e+05,7.3538e+05,7.3538e+05,7.3538e+05,7.3538e+05,7.3538e+05,7.3538e+05,7.3538e+05,7.3538e+05,7.3538e+05,7.3538e+05,7.3538e+05,7.3538e+05,7.3538e+05,7.3538e+05,7.3538e+05,7.3538e+05,7.3538e+05,7.3538e+05,7.3538e+05,7.3538e+05,7.3538e+05,7.3538e+05,7.3538e+05,7.3538e+05,7.3538e+05,7.3538e+05,7.3538e+05,7.3538e+05,7.3538e+05,7.3538e+05,7.3538e+05,7.3538e+05,7.3538e+05,7.3538e+05,7.3538e+05,7.3538e+05,7.3538e+05,7.3538e+05,7.3538e+05,7.3538e+05,7.3538e+05,7.3538e+05,7.3538e+05,7.3538e+05,7.3538e+05,7.3538e+05,7.3538e+05,7.3538e+05,7.3538e+05,7.3538e+05,7.3538e+05,7.3538e+05,7.3538e+05,7.3538e+05,7.3538e+05,7.3538e+05,7.3538e+05,7.3538e+05,7.3538e+05,7.3538e+05,7.3538e+05,7.3538e+05,7.3538e+05,7.3538e+05,7.3538e+05,7.3538e+05,7.3538e+05,7.3538e+05,7.3538e+05,7.3538e+05,7.3538e+05,7.3538e+05,7.3538e+05,7.3538e+05,7.3538e+05,7.3538e+05,7.3538e+05,7.3538e+05,7.3538e+05,7.3538e+05,7.3538e+05,7.3538e+05,7.3538e+05,7.3538e+05,7.3538e+05,7.3538e+05,7.3538e+05,7.3538e+05,7.3538e+05,7.3538e+05,7.3538e+05,7.3538e+05,7.3538e+05,7.3538e+05,7.3538e+05,7.3538e+05,7.3538e+05,7.3538e+05,7.3538e+05,7.3538e+05,7.3538e+05,7.3538e+05,7.3538e+05,7.3538e+05,7.3538e+05,7.3538e+05,7.3538e+05,7.3538e+05,7.3538e+05,7.3538e+05,7.3538e+05,7.3538e+05,7.3538e+05,7.3538e+05,7.3538e+05,7.3538e+05,7.3538e+05,7.3538e+05,7.3538e+05,7.3538e+05,7.3538e+05,7.3538e+05,7.3538e+05,7.3538e+05,7.3538e+05,7.3538e+05,7.3538e+05,7.3538e+05,7.3538e+05,7.3538e+05,7.3538e+05,7.3538e+05,7.3538e+05,7.3538e+05,7.3538e+05,7.3538e+05,7.3538e+05,7.3538e+05,7.3538e+05,7.3538e+05,7.3539e+05,7.3539e+05,7.3539e+05,7.3539e+05,7.3539e+05,7.3539e+05,7.3539e+05,7.3539e+05,7.3539e+05,7.3539e+05,7.3539e+05,7.3539e+05,7.3539e+05,7.3539e+05,7.3539e+05,7.3539e+05,7.3539e+05,7.3539e+05,7.3539e+05,7.3539e+05,7.3539e+05,7.3539e+05,7.3539e+05,7.3539e+05,7.3539e+05,7.3539e+05,7.3539e+05,7.3539e+05,7.3539e+05,7.3539e+05,7.3539e+05,7.3539e+05,7.3539e+05,7.3539e+05,7.3539e+05,7.3539e+05,7.3539e+05,7.3539e+05,7.3539e+05,7.3539e+05,7.3539e+05,7.3539e+05,7.3539e+05,7.3539e+05,7.3539e+05,7.3539e+05,7.3539e+05,7.3539e+05,7.3539e+05,7.3539e+05,7.3539e+05,7.3539e+05,7.3539e+05,7.3539e+05,7.3539e+05,7.3539e+05,7.3539e+05,7.3539e+05,7.3539e+05,7.3539e+05,7.3539e+05,7.3539e+05,7.3539e+05,7.3539e+05,7.3539e+05,7.3539e+05,7.3539e+05,7.3539e+05,7.3539e+05,7.3539e+05,7.3539e+05,7.3539e+05,7.3539e+05,7.3539e+05,7.3539e+05,7.3539e+05,7.3539e+05,7.3539e+05,7.3539e+05,7.3539e+05,7.3539e+05,7.3539e+05,7.3539e+05,7.3539e+05,7.3539e+05,7.3539e+05,7.3539e+05,7.3539e+05,7.3539e+05,7.3539e+05,7.3539e+05,7.3539e+05,7.3539e+05,7.3539e+05,7.3539e+05,7.3539e+05,7.3539e+05,7.3539e+05,7.3539e+05,7.3539e+05,7.3539e+05,7.3539e+05,7.3539e+05,7.3539e+05,7.3539e+05,7.3539e+05,7.3539e+05,7.3539e+05,7.3539e+05,7.3539e+05,7.3539e+05,7.3539e+05,7.3539e+05,7.3539e+05,7.3539e+05,7.3539e+05,7.3539e+05,7.3539e+05,7.3539e+05,7.3539e+05,7.3539e+05,7.3539e+05,7.3539e+05,7.3539e+05,7.3539e+05,7.3539e+05,7.3539e+05,7.3539e+05,7.3539e+05,7.3539e+05,7.3539e+05,7.3539e+05,7.3539e+05,7.3539e+05,7.3539e+05,7.3539e+05,7.3539e+05,7.3539e+05,7.3539e+05,7.3539e+05,7.3539e+05,7.3539e+05,7.3539e+05,7.3539e+05,7.3539e+05,7.3539e+05,7.3539e+05,7.3539e+05,7.3539e+05,7.3539e+05,7.3539e+05,7.3539e+05,7.3539e+05,7.3539e+05,7.3539e+05,7.3539e+05,7.3539e+05,7.3539e+05,7.3539e+05,7.3539e+05,7.3539e+05,7.3539e+05,7.3539e+05,7.3539e+05,7.3539e+05,7.3539e+05,7.3539e+05,7.3539e+05,7.3539e+05,7.3539e+05,7.3539e+05,7.3539e+05,7.3539e+05,7.3539e+05,7.3539e+05,7.3539e+05,7.3539e+05,7.3539e+05,7.3539e+05,7.3539e+05,7.3539e+05,7.3539e+05,7.3539e+05,7.3539e+05,7.3539e+05,7.3539e+05,7.3539e+05,7.3539e+05,7.3539e+05,7.3539e+05,7.3539e+05,7.3539e+05,7.3539e+05,7.3539e+05,7.3539e+05,7.3539e+05,7.3539e+05,7.3539e+05,7.3539e+05,7.3539e+05,7.3539e+05,7.3539e+05,7.3539e+05,7.3539e+05,7.3539e+05,7.3539e+05,7.3539e+05,7.3539e+05,7.3539e+05,7.3539e+05,7.3539e+05,7.3539e+05,7.3539e+05,7.3539e+05,7.3539e+05,7.3539e+05,7.3539e+05,7.3539e+05,7.3539e+05,7.3539e+05,7.3539e+05,7.3539e+05,7.3539e+05,7.3539e+05,7.3539e+05,7.3539e+05,7.3539e+05,7.3539e+05,7.3539e+05,7.3539e+05,7.3539e+05,7.3539e+05,7.3539e+05,7.3539e+05,7.3539e+05,7.3539e+05,7.3539e+05,7.3539e+05,7.3539e+05,7.3539e+05,7.3539e+05,7.3539e+05,7.3539e+05,7.3539e+05,7.3539e+05,7.3539e+05,7.3539e+05,7.3539e+05,7.3539e+05,7.3539e+05,7.3539e+05,7.3539e+05,7.3539e+05,7.3539e+05,7.3539e+05,7.3539e+05,7.3539e+05,7.3539e+05,7.3539e+05,7.3539e+05,7.3539e+05,7.3539e+05,7.3539e+05,7.3539e+05,7.3539e+05,7.3539e+05,7.3539e+05,7.3539e+05,7.3539e+05,7.3539e+05,7.3539e+05,7.3539e+05,7.3539e+05,7.3539e+05,7.3539e+05,7.3539e+05,7.3539e+05,7.3539e+05,7.3539e+05,7.3539e+05,7.3539e+05,7.3539e+05,7.3539e+05,7.3539e+05,7.3539e+05,7.3539e+05,7.3539e+05,7.3539e+05,7.3539e+05,7.3539e+05,7.3539e+05,7.3539e+05,7.3539e+05,7.3539e+05,7.3539e+05,7.3539e+05,7.3539e+05,7.3539e+05,7.3539e+05,7.3539e+05,7.3539e+05,7.3539e+05,7.3539e+05,7.3539e+05,7.3539e+05,7.3539e+05,7.3539e+05,7.3539e+05,7.3539e+05,7.3539e+05,7.3539e+05,7.3539e+05,7.3539e+05,7.3539e+05,7.3539e+05,7.3539e+05,7.3539e+05,7.3539e+05,7.3539e+05,7.3539e+05,7.3539e+05,7.3539e+05,7.3539e+05,7.3539e+05,7.3539e+05,7.3539e+05,7.3539e+05,7.3539e+05,7.3539e+05,7.3539e+05,7.3539e+05,7.3539e+05,7.3539e+05,7.3539e+05,7.3539e+05,7.3539e+05,7.3539e+05,7.3539e+05,7.3539e+05,7.3539e+05,7.3539e+05,7.3539e+05,7.3539e+05,7.3539e+05,7.3539e+05,7.3539e+05,7.3539e+05,7.3539e+05,7.3539e+05,7.3539e+05,7.3539e+05,7.3539e+05,7.3539e+05,7.3539e+05,7.3539e+05,7.3539e+05,7.3539e+05,7.3539e+05,7.3539e+05,7.3539e+05,7.3539e+05,7.3539e+05,7.3539e+05,7.3539e+05,7.3539e+05,7.3539e+05,7.3539e+05,7.3539e+05,7.3539e+05,7.3539e+05,7.3539e+05,7.3539e+05,7.3539e+05,7.3539e+05,7.3539e+05,7.3539e+05,7.3539e+05,7.3539e+05,7.3539e+05,7.3539e+05,7.3539e+05,7.3539e+05,7.3539e+05,7.3539e+05,7.3539e+05,7.3539e+05,7.3539e+05,7.3539e+05,7.3539e+05,7.3539e+05,7.3539e+05,7.3539e+05,7.3539e+05,7.3539e+05,7.3539e+05,7.3539e+05,7.3539e+05,7.3539e+05,7.3539e+05,7.3539e+05,7.3539e+05,7.3539e+05,7.3539e+05,7.3539e+05,7.3539e+05,7.3539e+05,7.3539e+05,7.3539e+05,7.3539e+05,7.3539e+05,7.3539e+05,7.3539e+05,7.3539e+05,7.3539e+05,7.3539e+05,7.3539e+05,7.3539e+05,7.3539e+05,7.3539e+05,7.3539e+05,7.3539e+05,7.3539e+05,7.3539e+05,7.3539e+05,7.3539e+05,7.3539e+05,7.3539e+05,7.3539e+05,7.3539e+05,7.3539e+05,7.3539e+05,7.3539e+05,7.3539e+05,7.3539e+05,7.3539e+05,7.3539e+05,7.3539e+05,7.3539e+05,7.3539e+05,7.3539e+05,7.3539e+05,7.3539e+05,7.3539e+05,7.3539e+05,7.3539e+05,7.3539e+05,7.3539e+05,7.3539e+05,7.3539e+05,7.3539e+05,7.3539e+05,7.3539e+05,7.3539e+05,7.3539e+05,7.3539e+05,7.3539e+05,7.3539e+05,7.3539e+05,7.3539e+05,7.3539e+05,7.3539e+05,7.3539e+05,7.3539e+05,7.3539e+05,7.3539e+05,7.3539e+05,7.3539e+05,7.3539e+05,7.3539e+05,7.3539e+05,7.3539e+05,7.3539e+05,7.3539e+05,7.3539e+05,7.3539e+05,7.3539e+05,7.3539e+05,7.3539e+05,7.3539e+05,7.3539e+05,7.3539e+05,7.3539e+05,7.3539e+05,7.3539e+05,7.3539e+05,7.3539e+05,7.3539e+05,7.3539e+05,7.3539e+05,7.3539e+05,7.3539e+05,7.3539e+05,7.3539e+05,7.3539e+05,7.3539e+05,7.3539e+05,7.3539e+05,7.3539e+05,7.3539e+05,7.3539e+05,7.3539e+05,7.3539e+05,7.3539e+05,7.3539e+05,7.3539e+05,7.3539e+05,7.3539e+05,7.3539e+05,7.3539e+05,7.3539e+05,7.3539e+05,7.3539e+05,7.3539e+05,7.3539e+05,7.3539e+05,7.3539e+05,7.3539e+05,7.3539e+05,7.3539e+05,7.3539e+05,7.3539e+05,7.3539e+05,7.3539e+05,7.3539e+05,7.3539e+05,7.3539e+05,7.3539e+05,7.3539e+05,7.3539e+05,7.3539e+05,7.3539e+05,7.3539e+05,7.3539e+05,7.3539e+05,7.3539e+05,7.3539e+05,7.3539e+05,7.3539e+05,7.3539e+05,7.3539e+05,7.3539e+05,7.3539e+05,7.3539e+05,7.3539e+05,7.3539e+05,7.3539e+05,7.3539e+05,7.3539e+05,7.3539e+05,7.3539e+05,7.3539e+05,7.3539e+05,7.3539e+05,7.3539e+05,7.3539e+05,7.3539e+05,7.3539e+05,7.3539e+05,7.3539e+05,7.3539e+05,7.3539e+05,7.3539e+05,7.3539e+05,7.3539e+05,7.3539e+05,7.3539e+05,7.3539e+05,7.3539e+05,7.3539e+05,7.3539e+05,7.3539e+05,7.3539e+05,7.3539e+05,7.3539e+05,7.3539e+05,7.3539e+05,7.3539e+05,7.3539e+05,7.3539e+05,7.3539e+05,7.3539e+05,7.3539e+05,7.3539e+05,7.3539e+05,7.3539e+05,7.3539e+05,7.3539e+05,7.3539e+05,7.3539e+05,7.3539e+05,7.3539e+05,7.3539e+05,7.3539e+05,7.3539e+05,7.3539e+05,7.3539e+05,7.3539e+05,7.3539e+05,7.3539e+05,7.3539e+05,7.3539e+05,7.3539e+05,7.3539e+05,7.3539e+05,7.3539e+05,7.3539e+05,7.3539e+05,7.3539e+05,7.3539e+05,7.3539e+05,7.3539e+05,7.3539e+05,7.3539e+05,7.3539e+05,7.3539e+05,7.3539e+05,7.3539e+05,7.3539e+05,7.3539e+05,7.3539e+05,7.3539e+05,7.3539e+05,7.3539e+05,7.3539e+05,7.3539e+05,7.3539e+05,7.3539e+05,7.3539e+05,7.3539e+05,7.3539e+05,7.3539e+05,7.3539e+05,7.3539e+05,7.3539e+05,7.3539e+05,7.3539e+05,7.3539e+05,7.3539e+05,7.3539e+05,7.3539e+05,7.3539e+05,7.3539e+05,7.3539e+05,7.3539e+05,7.3539e+05,7.3539e+05,7.3539e+05,7.3539e+05,7.3539e+05,7.3539e+05,7.3539e+05,7.3539e+05,7.3539e+05,7.3539e+05,7.3539e+05,7.3539e+05,7.3539e+05,7.3539e+05,7.3539e+05,7.3539e+05,7.3539e+05,7.3539e+05,7.3539e+05,7.3539e+05,7.3539e+05,7.3539e+05,7.3539e+05,7.3539e+05,7.3539e+05,7.3539e+05,7.3539e+05,7.3539e+05,7.3539e+05,7.3539e+05,7.3539e+05,7.3539e+05,7.3539e+05,7.3539e+05,7.3539e+05,7.3539e+05,7.3539e+05,7.3539e+05,7.3539e+05,7.3539e+05,7.3539e+05,7.3539e+05,7.3539e+05,7.3539e+05,7.3539e+05,7.3539e+05,7.3539e+05,7.3539e+05,7.3539e+05,7.3539e+05,7.3539e+05,7.3539e+05,7.3539e+05,7.3539e+05,7.3539e+05,7.3539e+05,7.3539e+05,7.3539e+05,7.3539e+05,7.3539e+05,7.3539e+05,7.3539e+05,7.3539e+05,7.3539e+05,7.3539e+05,7.3539e+05,7.3539e+05,7.3539e+05,7.3539e+05,7.3539e+05,7.3539e+05,7.3539e+05,7.3539e+05,7.3539e+05,7.3539e+05,7.3539e+05,7.3539e+05,7.3539e+05,7.3539e+05,7.3539e+05,7.3539e+05,7.3539e+05,7.3539e+05,7.3539e+05,7.3539e+05,7.3539e+05,7.3539e+05,7.3539e+05,7.3539e+05,7.3539e+05,7.3539e+05,7.3539e+05,7.3539e+05,7.3539e+05,7.3539e+05,7.3539e+05,7.3539e+05,7.3539e+05,7.3539e+05,7.3539e+05,7.3539e+05,7.3539e+05,7.3539e+05,7.3539e+05,7.3539e+05,7.3539e+05,7.3539e+05,7.3539e+05,7.3539e+05,7.3539e+05,7.3539e+05,7.3539e+05,7.3539e+05,7.3539e+05,7.3539e+05,7.3539e+05,7.3539e+05,7.3539e+05,7.3539e+05,7.3539e+05,7.3539e+05,7.3539e+05,7.3539e+05,7.3539e+05,7.3539e+05,7.3539e+05,7.3539e+05,7.3539e+05,7.3539e+05,7.3539e+05,7.3539e+05,7.3539e+05,7.3539e+05,7.3539e+05,7.3539e+05,7.3539e+05,7.3539e+05,7.3539e+05,7.3539e+05,7.3539e+05,7.3539e+05,7.3539e+05,7.3539e+05,7.3539e+05,7.3539e+05,7.3539e+05,7.3539e+05,7.3539e+05,7.3539e+05,7.3539e+05,7.3539e+05,7.3539e+05,7.3539e+05,7.3539e+05,7.3539e+05,7.3539e+05,7.3539e+05,7.3539e+05,7.3539e+05,7.3539e+05,7.3539e+05,7.3539e+05,7.3539e+05,7.3539e+05,7.3539e+05,7.3539e+05,7.3539e+05,7.3539e+05,7.3539e+05,7.3539e+05,7.3539e+05,7.3539e+05,7.3539e+05,7.3539e+05,7.3539e+05,7.3539e+05,7.3539e+05,7.3539e+05,7.3539e+05,7.3539e+05,7.3539e+05,7.3539e+05,7.3539e+05,7.3539e+05,7.3539e+05,7.3539e+05,7.3539e+05,7.3539e+05,7.3539e+05,7.3539e+05,7.3539e+05,7.3539e+05,7.3539e+05,7.3539e+05,7.3539e+05,7.3539e+05,7.3539e+05,7.3539e+05,7.3539e+05,7.3539e+05,7.3539e+05,7.3539e+05,7.3539e+05,7.3539e+05,7.3539e+05,7.3539e+05,7.3539e+05,7.3539e+05,7.3539e+05,7.3539e+05,7.3539e+05,7.3539e+05,7.3539e+05,7.3539e+05,7.3539e+05,7.3539e+05,7.3539e+05,7.3539e+05,7.3539e+05,7.3539e+05,7.3539e+05,7.3539e+05,7.3539e+05,7.3539e+05,7.3539e+05,7.3539e+05,7.3539e+05,7.3539e+05,7.3539e+05,7.3539e+05,7.3539e+05,7.3539e+05,7.3539e+05,7.3539e+05,7.3539e+05,7.3539e+05,7.3539e+05,7.3539e+05,7.3539e+05,7.3539e+05,7.3539e+05,7.3539e+05,7.3539e+05,7.3539e+05,7.3539e+05,7.3539e+05,7.3539e+05,7.3539e+05,7.3539e+05,7.3539e+05,7.3539e+05,7.3539e+05,7.3539e+05,7.3539e+05,7.3539e+05,7.3539e+05,7.3539e+05,7.3539e+05,7.3539e+05,7.3539e+05,7.3539e+05,7.3539e+05,7.3539e+05,7.3539e+05,7.3539e+05,7.3539e+05,7.3539e+05,7.3539e+05,7.3539e+05,7.3539e+05,7.3539e+05,7.3539e+05,7.3539e+05,7.3539e+05,7.3539e+05,7.3539e+05,7.3539e+05,7.3539e+05,7.3539e+05,7.3539e+05,7.3539e+05,7.3539e+05,7.3539e+05,7.3539e+05,7.3539e+05,7.3539e+05,7.3539e+05,7.3539e+05,7.3539e+05,7.3539e+05,7.3539e+05,7.3539e+05,7.3539e+05,7.3539e+05,7.3539e+05,7.3539e+05,7.3539e+05,7.3539e+05,7.3539e+05,7.3539e+05,7.3539e+05,7.3539e+05,7.3539e+05,7.3539e+05,7.3539e+05,7.3539e+05,7.3539e+05,7.3539e+05,7.3539e+05,7.3539e+05,7.3539e+05,7.3539e+05,7.3539e+05,7.3539e+05,7.3539e+05,7.3539e+05,7.354e+05,7.354e+05,7.354e+05,7.354e+05,7.354e+05,7.354e+05,7.354e+05,7.354e+05,7.354e+05,7.354e+05,7.354e+05,7.354e+05,7.354e+05,7.354e+05,7.354e+05,7.354e+05,7.354e+05,7.354e+05,7.354e+05,7.354e+05,7.354e+05,7.354e+05,7.354e+05,7.354e+05,7.354e+05,7.354e+05,7.354e+05,7.354e+05,7.354e+05,7.354e+05,7.354e+05,7.354e+05,7.354e+05,7.354e+05,7.354e+05,7.354e+05,7.354e+05,7.354e+05,7.354e+05,7.354e+05,7.354e+05,7.354e+05,7.354e+05,7.354e+05,7.354e+05,7.354e+05,7.354e+05,7.354e+05,7.354e+05,7.354e+05,7.354e+05,7.354e+05,7.354e+05,7.354e+05,7.354e+05,7.354e+05,7.354e+05,7.354e+05,7.354e+05,7.354e+05,7.354e+05,7.354e+05,7.354e+05,7.354e+05,7.354e+05,7.354e+05,7.354e+05,7.354e+05,7.354e+05,7.354e+05,7.354e+05,7.354e+05,7.354e+05,7.354e+05,7.354e+05,7.354e+05,7.354e+05,7.354e+05,7.354e+05,7.354e+05,7.354e+05,7.354e+05,7.354e+05,7.354e+05,7.354e+05,7.354e+05,7.354e+05,7.354e+05,7.354e+05,7.354e+05,7.354e+05,7.354e+05,7.354e+05,7.354e+05,7.354e+05,7.354e+05,7.354e+05,7.354e+05,7.354e+05,7.354e+05,7.354e+05,7.354e+05,7.354e+05,7.354e+05,7.354e+05,7.354e+05,7.354e+05,7.354e+05,7.354e+05,7.354e+05,7.354e+05,7.354e+05,7.354e+05,7.354e+05,7.354e+05,7.354e+05,7.354e+05,7.354e+05,7.354e+05,7.354e+05,7.354e+05,7.354e+05,7.354e+05,7.354e+05,7.354e+05,7.354e+05,7.354e+05,7.354e+05,7.354e+05,7.354e+05,7.354e+05,7.354e+05,7.354e+05,7.354e+05,7.354e+05,7.354e+05,7.354e+05,7.354e+05,7.354e+05,7.354e+05,7.354e+05,7.354e+05,7.354e+05,7.354e+05,7.354e+05,7.354e+05,7.354e+05,7.354e+05,7.354e+05,7.354e+05,7.354e+05,7.354e+05,7.354e+05,7.354e+05,7.354e+05,7.354e+05,7.354e+05,7.354e+05,7.354e+05,7.354e+05,7.354e+05,7.354e+05,7.354e+05,7.354e+05,7.354e+05,7.354e+05,7.354e+05,7.354e+05,7.354e+05,7.354e+05,7.354e+05,7.354e+05,7.354e+05,7.354e+05,7.354e+05,7.354e+05,7.354e+05,7.354e+05,7.354e+05,7.354e+05,7.354e+05,7.354e+05,7.354e+05,7.354e+05,7.354e+05,7.354e+05,7.354e+05,7.354e+05,7.354e+05,7.354e+05,7.354e+05,7.354e+05,7.354e+05,7.354e+05,7.354e+05,7.354e+05,7.354e+05,7.354e+05,7.354e+05,7.354e+05,7.354e+05,7.354e+05,7.354e+05,7.354e+05,7.354e+05,7.354e+05,7.354e+05,7.354e+05,7.354e+05,7.354e+05,7.354e+05,7.354e+05,7.354e+05,7.354e+05,7.354e+05,7.354e+05,7.354e+05,7.354e+05,7.354e+05,7.354e+05,7.354e+05,7.354e+05,7.354e+05,7.354e+05,7.354e+05,7.354e+05,7.354e+05,7.354e+05,7.354e+05,7.354e+05,7.354e+05,7.354e+05,7.354e+05,7.354e+05,7.354e+05,7.354e+05,7.354e+05,7.354e+05,7.354e+05,7.354e+05,7.354e+05,7.354e+05,7.354e+05,7.354e+05,7.354e+05,7.354e+05,7.354e+05,7.354e+05,7.354e+05,7.354e+05,7.354e+05,7.354e+05,7.354e+05,7.354e+05,7.354e+05,7.354e+05,7.354e+05,7.354e+05,7.354e+05,7.354e+05,7.354e+05,7.354e+05,7.354e+05,7.354e+05,7.354e+05,7.354e+05,7.354e+05,7.354e+05,7.354e+05,7.354e+05,7.354e+05,7.354e+05,7.354e+05,7.354e+05,7.354e+05,7.354e+05,7.354e+05,7.354e+05,7.354e+05,7.354e+05,7.354e+05,7.354e+05,7.354e+05,7.354e+05,7.354e+05,7.354e+05,7.354e+05,7.354e+05,7.354e+05,7.354e+05,7.354e+05,7.354e+05,7.354e+05,7.354e+05,7.354e+05,7.354e+05,7.354e+05,7.354e+05,7.354e+05,7.354e+05,7.354e+05,7.354e+05,7.354e+05,7.354e+05,7.354e+05,7.354e+05,7.354e+05,7.354e+05,7.354e+05,7.354e+05,7.354e+05,7.354e+05,7.354e+05,7.354e+05,7.354e+05,7.354e+05,7.354e+05,7.354e+05,7.354e+05,7.354e+05,7.354e+05,7.354e+05,7.354e+05,7.354e+05,7.354e+05,7.354e+05,7.354e+05,7.354e+05,7.354e+05,7.354e+05,7.354e+05,7.354e+05,7.354e+05,7.354e+05,7.354e+05,7.354e+05,7.354e+05,7.354e+05,7.354e+05,7.354e+05,7.354e+05,7.354e+05,7.354e+05,7.354e+05,7.354e+05,7.354e+05,7.354e+05,7.354e+05,7.354e+05,7.354e+05,7.354e+05,7.354e+05,7.354e+05,7.354e+05,7.354e+05,7.354e+05,7.354e+05,7.354e+05,7.354e+05,7.354e+05,7.354e+05,7.354e+05,7.354e+05,7.354e+05,7.354e+05,7.354e+05,7.354e+05,7.354e+05,7.354e+05,7.354e+05,7.354e+05,7.354e+05,7.354e+05,7.354e+05,7.354e+05,7.354e+05,7.354e+05,7.354e+05,7.354e+05,7.354e+05,7.354e+05,7.354e+05,7.354e+05,7.354e+05,7.354e+05,7.354e+05,7.354e+05,7.354e+05,7.354e+05,7.354e+05,7.354e+05,7.354e+05,7.354e+05,7.354e+05,7.354e+05,7.354e+05,7.354e+05,7.354e+05,7.354e+05,7.354e+05,7.354e+05,7.354e+05,7.354e+05,7.354e+05,7.354e+05,7.354e+05,7.354e+05,7.354e+05,7.354e+05,7.354e+05,7.354e+05,7.354e+05,7.354e+05,7.354e+05,7.354e+05,7.354e+05,7.354e+05,7.354e+05,7.354e+05,7.354e+05,7.354e+05,7.354e+05,7.354e+05,7.354e+05,7.354e+05,7.354e+05,7.354e+05,7.354e+05,7.354e+05,7.354e+05,7.354e+05,7.354e+05,7.354e+05,7.354e+05,7.354e+05,7.354e+05,7.354e+05,7.354e+05,7.354e+05,7.354e+05,7.354e+05,7.354e+05,7.354e+05,7.354e+05,7.354e+05,7.354e+05,7.354e+05,7.354e+05,7.354e+05,7.354e+05,7.354e+05,7.354e+05,7.354e+05,7.354e+05,7.354e+05,7.354e+05,7.354e+05,7.354e+05,7.354e+05,7.354e+05,7.354e+05,7.354e+05,7.354e+05,7.354e+05,7.354e+05,7.354e+05,7.354e+05,7.354e+05,7.354e+05,7.354e+05,7.354e+05,7.354e+05,7.354e+05,7.354e+05,7.354e+05,7.354e+05,7.354e+05,7.354e+05,7.354e+05,7.354e+05,7.354e+05,7.354e+05,7.354e+05,7.354e+05,7.354e+05,7.354e+05,7.354e+05,7.354e+05,7.354e+05,7.354e+05,7.354e+05,7.354e+05,7.354e+05,7.354e+05,7.354e+05,7.354e+05,7.354e+05,7.354e+05,7.354e+05,7.354e+05,7.354e+05,7.354e+05,7.354e+05,7.354e+05,7.354e+05,7.354e+05,7.354e+05,7.354e+05,7.354e+05,7.354e+05,7.354e+05,7.354e+05,7.354e+05,7.354e+05,7.354e+05,7.354e+05,7.354e+05,7.354e+05,7.354e+05,7.354e+05,7.354e+05,7.354e+05,7.354e+05,7.354e+05,7.354e+05,7.354e+05,7.354e+05,7.354e+05,7.354e+05,7.354e+05,7.354e+05,7.354e+05,7.354e+05,7.354e+05,7.354e+05,7.354e+05,7.354e+05,7.354e+05,7.354e+05,7.354e+05,7.354e+05,7.354e+05,7.354e+05,7.354e+05,7.354e+05,7.354e+05,7.354e+05,7.354e+05,7.354e+05,7.354e+05,7.354e+05,7.354e+05,7.354e+05,7.354e+05,7.354e+05,7.354e+05,7.354e+05,7.354e+05,7.354e+05,7.354e+05,7.354e+05,7.354e+05,7.354e+05,7.354e+05,7.354e+05,7.354e+05,7.354e+05,7.354e+05,7.354e+05,7.354e+05,7.354e+05,7.354e+05,7.354e+05,7.354e+05,7.354e+05,7.354e+05,7.354e+05,7.354e+05,7.354e+05,7.354e+05,7.354e+05,7.354e+05,7.354e+05,7.354e+05,7.354e+05,7.354e+05,7.354e+05,7.354e+05,7.354e+05,7.354e+05,7.354e+05,7.354e+05,7.354e+05,7.354e+05,7.354e+05,7.354e+05,7.354e+05,7.354e+05,7.354e+05,7.354e+05,7.354e+05,7.354e+05,7.354e+05,7.354e+05,7.354e+05,7.354e+05,7.354e+05,7.354e+05,7.354e+05,7.354e+05,7.354e+05,7.354e+05,7.354e+05,7.354e+05,7.354e+05,7.354e+05,7.354e+05,7.354e+05,7.354e+05,7.354e+05,7.354e+05,7.354e+05,7.354e+05,7.354e+05,7.354e+05,7.354e+05,7.354e+05,7.354e+05,7.354e+05,7.354e+05,7.354e+05,7.354e+05,7.354e+05,7.354e+05,7.354e+05,7.354e+05,7.354e+05,7.354e+05,7.354e+05,7.354e+05,7.354e+05,7.354e+05,7.354e+05,7.354e+05,7.354e+05,7.354e+05,7.354e+05,7.354e+05,7.354e+05,7.354e+05,7.354e+05,7.354e+05,7.354e+05,7.354e+05,7.354e+05,7.354e+05,7.354e+05,7.354e+05,7.354e+05,7.354e+05,7.354e+05,7.354e+05,7.354e+05,7.354e+05,7.354e+05,7.354e+05,7.354e+05,7.354e+05,7.354e+05,7.354e+05,7.354e+05,7.354e+05
